45
1 0 5
2 0 5
2 1 2
3 0 2
3 1 5
3 2 5
4 0 1
4 1 4
4 2 2
4 3 1
5 0 2
5 1 5
5 2 4
5 3 2
5 4 1
6 0 2
6 1 2
6 2 3
6 3 3
6 4 1
6 5 5
7 0 1
7 1 4
7 2 1
7 3 3
7 4 3
7 5 4
7 6 3
8 0 2
8 1 5
8 2 1
8 3 4
8 4 3
8 5 5
8 6 1
8 7 3
9 0 1
9 1 5
9 2 1
9 3 3
9 4 3
9 5 3
9 6 2
9 7 3
9 8 5
10 0 4
10 1 4
10 2 5
10 3 1
10 4 5
10 5 5
10 6 2
10 7 2
10 8 2
10 9 5
11 0 3
11 1 3
11 2 5
11 3 5
11 4 4
11 5 5
11 6 5
11 7 5
11 8 5
11 9 5
11 10 4
12 0 2
12 1 5
12 2 4
12 3 1
12 4 1
12 5 1
12 6 2
12 7 4
12 8 1
12 9 5
12 10 1
12 11 2
13 0 2
13 1 3
13 2 3
13 3 1
13 4 5
13 5 3
13 6 1
13 7 5
13 8 3
13 9 1
13 10 2
13 11 5
13 12 3
14 0 3
14 1 2
14 2 5
14 3 5
14 4 2
14 5 1
14 6 1
14 7 2
14 8 1
14 9 2
14 10 5
14 11 2
14 12 3
14 13 3
15 0 4
15 1 1
15 2 3
15 3 4
15 4 1
15 5 1
15 6 4
15 7 1
15 8 2
15 9 5
15 10 2
15 11 5
15 12 3
15 13 5
15 14 5
16 0 4
16 1 1
16 2 4
16 3 2
16 4 4
16 5 4
16 6 2
16 7 2
16 8 3
16 9 2
16 10 1
16 11 2
16 12 5
16 13 5
16 14 3
16 15 5
17 0 1
17 1 3
17 2 3
17 3 2
17 4 1
17 5 4
17 6 5
17 7 2
17 8 5
17 9 5
17 10 1
17 11 3
17 12 3
17 13 4
17 14 4
17 15 3
17 16 2
18 0 1
18 1 2
18 2 5
18 3 2
18 4 2
18 5 4
18 6 4
18 7 1
18 8 2
18 9 1
18 10 3
18 11 3
18 12 1
18 13 4
18 14 1
18 15 4
18 16 1
18 17 2
19 0 1
19 1 3
19 2 1
19 3 4
19 4 2
19 5 1
19 6 5
19 7 3
19 8 3
19 9 1
19 10 4
19 11 2
19 12 5
19 13 5
19 14 1
19 15 1
19 16 1
19 17 3
19 18 3
20 0 2
20 1 1
20 2 2
20 3 3
20 4 3
20 5 4
20 6 2
20 7 1
20 8 1
20 9 1
20 10 4
20 11 2
20 12 2
20 13 4
20 14 3
20 15 5
20 16 4
20 17 1
20 18 1
20 19 2
21 0 4
21 1 5
21 2 3
21 3 5
21 4 3
21 5 3
21 6 1
21 7 5
21 8 3
21 9 5
21 10 1
21 11 5
21 12 2
21 13 4
21 14 5
21 15 5
21 16 2
21 17 2
21 18 2
21 19 5
21 20 4
22 0 4
22 1 2
22 2 5
22 3 3
22 4 3
22 5 1
22 6 2
22 7 2
22 8 1
22 9 5
22 10 5
22 11 1
22 12 3
22 13 4
22 14 1
22 15 3
22 16 1
22 17 2
22 18 1
22 19 1
22 20 2
22 21 2
23 0 4
23 1 5
23 2 5
23 3 1
23 4 2
23 5 1
23 6 2
23 7 5
23 8 3
23 9 4
23 10 1
23 11 5
23 12 4
23 13 1
23 14 2
23 15 5
23 16 5
23 17 1
23 18 4
23 19 4
23 20 5
23 21 4
23 22 4
24 0 4
24 1 1
24 2 4
24 3 3
24 4 5
24 5 3
24 6 5
24 7 2
24 8 1
24 9 1
24 10 5
24 11 2
24 12 4
24 13 2
24 14 5
24 15 1
24 16 4
24 17 5
24 18 1
24 19 4
24 20 5
24 21 2
24 22 5
24 23 3
25 0 3
25 1 2
25 2 5
25 3 5
25 4 4
25 5 3
25 6 3
25 7 4
25 8 2
25 9 1
25 10 4
25 11 3
25 12 5
25 13 2
25 14 3
25 15 4
25 16 3
25 17 2
25 18 4
25 19 2
25 20 2
25 21 4
25 22 5
25 23 1
25 24 4
26 0 3
26 1 3
26 2 2
26 3 1
26 4 3
26 5 3
26 6 2
26 7 1
26 8 1
26 9 4
26 10 5
26 11 4
26 12 4
26 13 3
26 14 3
26 15 4
26 16 1
26 17 3
26 18 4
26 19 4
26 20 3
26 21 5
26 22 3
26 23 5
26 24 2
26 25 4
27 0 2
27 1 1
27 2 2
27 3 4
27 4 3
27 5 5
27 6 3
27 7 3
27 8 3
27 9 2
27 10 4
27 11 3
27 12 1
27 13 4
27 14 2
27 15 4
27 16 1
27 17 4
27 18 5
27 19 3
27 20 5
27 21 1
27 22 4
27 23 2
27 24 5
27 25 1
27 26 3
28 0 2
28 1 4
28 2 3
28 3 2
28 4 3
28 5 2
28 6 2
28 7 3
28 8 4
28 9 3
28 10 3
28 11 5
28 12 2
28 13 5
28 14 5
28 15 2
28 16 1
28 17 2
28 18 5
28 19 2
28 20 5
28 21 3
28 22 5
28 23 1
28 24 3
28 25 2
28 26 2
28 27 5
29 0 4
29 1 1
29 2 3
29 3 1
29 4 1
29 5 4
29 6 2
29 7 1
29 8 5
29 9 2
29 10 3
29 11 4
29 12 5
29 13 3
29 14 2
29 15 2
29 16 3
29 17 5
29 18 3
29 19 4
29 20 4
29 21 1
29 22 2
29 23 5
29 24 1
29 25 1
29 26 4
29 27 4
29 28 3
30 0 1
30 1 5
30 2 3
30 3 1
30 4 3
30 5 4
30 6 4
30 7 5
30 8 1
30 9 5
30 10 3
30 11 5
30 12 3
30 13 4
30 14 1
30 15 5
30 16 5
30 17 1
30 18 1
30 19 1
30 20 3
30 21 2
30 22 5
30 23 2
30 24 2
30 25 3
30 26 5
30 27 5
30 28 1
30 29 4
31 0 5
31 1 2
31 2 5
31 3 5
31 4 2
31 5 3
31 6 2
31 7 2
31 8 5
31 9 2
31 10 4
31 11 4
31 12 4
31 13 2
31 14 1
31 15 5
31 16 1
31 17 4
31 18 5
31 19 5
31 20 2
31 21 2
31 22 2
31 23 4
31 24 1
31 25 2
31 26 1
31 27 5
31 28 5
31 29 5
31 30 5
32 0 1
32 1 5
32 2 5
32 3 1
32 4 3
32 5 4
32 6 1
32 7 2
32 8 2
32 9 1
32 10 3
32 11 4
32 12 4
32 13 3
32 14 3
32 15 1
32 16 1
32 17 3
32 18 3
32 19 4
32 20 1
32 21 2
32 22 2
32 23 5
32 24 5
32 25 2
32 26 2
32 27 1
32 28 3
32 29 2
32 30 5
32 31 4
33 0 5
33 1 4
33 2 5
33 3 2
33 4 2
33 5 5
33 6 1
33 7 5
33 8 2
33 9 5
33 10 1
33 11 3
33 12 2
33 13 1
33 14 3
33 15 2
33 16 1
33 17 3
33 18 4
33 19 4
33 20 5
33 21 5
33 22 5
33 23 2
33 24 4
33 25 1
33 26 2
33 27 4
33 28 2
33 29 1
33 30 5
33 31 5
33 32 1
34 0 5
34 1 5
34 2 1
34 3 1
34 4 3
34 5 5
34 6 1
34 7 3
34 8 2
34 9 5
34 10 4
34 11 2
34 12 3
34 13 5
34 14 1
34 15 2
34 16 1
34 17 2
34 18 3
34 19 5
34 20 4
34 21 3
34 22 1
34 23 2
34 24 2
34 25 4
34 26 1
34 27 2
34 28 2
34 29 5
34 30 1
34 31 4
34 32 3
34 33 2
35 0 1
35 1 1
35 2 4
35 3 3
35 4 2
35 5 2
35 6 4
35 7 5
35 8 2
35 9 2
35 10 1
35 11 1
35 12 2
35 13 5
35 14 5
35 15 5
35 16 4
35 17 1
35 18 4
35 19 5
35 20 1
35 21 2
35 22 1
35 23 3
35 24 1
35 25 5
35 26 4
35 27 2
35 28 3
35 29 1
35 30 2
35 31 5
35 32 5
35 33 1
35 34 2
36 0 2
36 1 4
36 2 1
36 3 2
36 4 4
36 5 1
36 6 1
36 7 3
36 8 5
36 9 4
36 10 4
36 11 2
36 12 1
36 13 1
36 14 4
36 15 4
36 16 3
36 17 2
36 18 1
36 19 4
36 20 2
36 21 5
36 22 5
36 23 4
36 24 1
36 25 5
36 26 2
36 27 3
36 28 3
36 29 2
36 30 3
36 31 3
36 32 3
36 33 5
36 34 3
36 35 1
37 0 2
37 1 3
37 2 5
37 3 2
37 4 2
37 5 3
37 6 5
37 7 2
37 8 2
37 9 3
37 10 3
37 11 2
37 12 2
37 13 5
37 14 2
37 15 2
37 16 4
37 17 4
37 18 1
37 19 2
37 20 3
37 21 4
37 22 2
37 23 1
37 24 3
37 25 3
37 26 4
37 27 1
37 28 3
37 29 1
37 30 3
37 31 5
37 32 5
37 33 1
37 34 3
37 35 3
37 36 4
38 0 1
38 1 5
38 2 3
38 3 1
38 4 4
38 5 4
38 6 1
38 7 4
38 8 4
38 9 1
38 10 4
38 11 4
38 12 4
38 13 4
38 14 4
38 15 5
38 16 1
38 17 2
38 18 5
38 19 2
38 20 4
38 21 4
38 22 4
38 23 1
38 24 2
38 25 5
38 26 4
38 27 3
38 28 2
38 29 2
38 30 5
38 31 2
38 32 2
38 33 1
38 34 5
38 35 4
38 36 3
38 37 1
39 0 5
39 1 1
39 2 5
39 3 3
39 4 3
39 5 4
39 6 3
39 7 1
39 8 2
39 9 5
39 10 1
39 11 3
39 12 4
39 13 4
39 14 5
39 15 4
39 16 1
39 17 5
39 18 3
39 19 5
39 20 5
39 21 3
39 22 1
39 23 3
39 24 5
39 25 2
39 26 5
39 27 2
39 28 4
39 29 1
39 30 3
39 31 4
39 32 1
39 33 5
39 34 3
39 35 3
39 36 1
39 37 2
39 38 4
40 0 3
40 1 3
40 2 4
40 3 5
40 4 2
40 5 1
40 6 3
40 7 5
40 8 1
40 9 3
40 10 5
40 11 3
40 12 5
40 13 2
40 14 2
40 15 4
40 16 4
40 17 3
40 18 2
40 19 2
40 20 1
40 21 5
40 22 3
40 23 5
40 24 5
40 25 1
40 26 1
40 27 1
40 28 2
40 29 5
40 30 1
40 31 3
40 32 3
40 33 2
40 34 4
40 35 5
40 36 3
40 37 5
40 38 5
40 39 1
41 0 1
41 1 4
41 2 4
41 3 5
41 4 4
41 5 1
41 6 4
41 7 5
41 8 1
41 9 2
41 10 1
41 11 3
41 12 3
41 13 1
41 14 3
41 15 2
41 16 4
41 17 2
41 18 4
41 19 2
41 20 4
41 21 2
41 22 4
41 23 1
41 24 3
41 25 3
41 26 4
41 27 3
41 28 4
41 29 1
41 30 4
41 31 1
41 32 2
41 33 3
41 34 5
41 35 2
41 36 1
41 37 3
41 38 1
41 39 5
41 40 2
42 0 3
42 1 3
42 2 2
42 3 3
42 4 5
42 5 1
42 6 3
42 7 2
42 8 4
42 9 5
42 10 2
42 11 4
42 12 2
42 13 2
42 14 4
42 15 5
42 16 2
42 17 4
42 18 2
42 19 2
42 20 2
42 21 4
42 22 5
42 23 5
42 24 1
42 25 1
42 26 1
42 27 5
42 28 2
42 29 1
42 30 4
42 31 5
42 32 5
42 33 3
42 34 3
42 35 4
42 36 4
42 37 4
42 38 4
42 39 4
42 40 4
42 41 2
43 0 1
43 1 1
43 2 2
43 3 2
43 4 3
43 5 2
43 6 1
43 7 2
43 8 2
43 9 5
43 10 3
43 11 2
43 12 1
43 13 5
43 14 1
43 15 5
43 16 5
43 17 1
43 18 5
43 19 5
43 20 1
43 21 2
43 22 1
43 23 4
43 24 5
43 25 5
43 26 1
43 27 4
43 28 5
43 29 4
43 30 5
43 31 4
43 32 3
43 33 4
43 34 2
43 35 5
43 36 5
43 37 4
43 38 4
43 39 2
43 40 5
43 41 4
43 42 5
44 0 2
44 1 3
44 2 2
44 3 2
44 4 3
44 5 1
44 6 4
44 7 1
44 8 1
44 9 2
44 10 2
44 11 3
44 12 2
44 13 4
44 14 5
44 15 2
44 16 1
44 17 1
44 18 3
44 19 3
44 20 1
44 21 4
44 22 5
44 23 1
44 24 2
44 25 5
44 26 1
44 27 5
44 28 4
44 29 1
44 30 5
44 31 1
44 32 3
44 33 2
44 34 2
44 35 2
44 36 1
44 37 3
44 38 4
44 39 5
44 40 4
44 41 5
44 42 4
44 43 2
